(set-logic QF_SLIA)
(declare-fun var0 () String)
(assert (not (str.in_re var0 (re.++ ((_ re.loop 19 348) (re.++ (re.union (str.to_re "zK") (re.union (str.to_re "-\\c") (re.union (str.to_re "z#") (str.to_re "v+`")))) (re.++ (re.union (str.to_re "X+") (re.union (str.to_re "tcy") (re.union (str.to_re "WL") (str.to_re "iw9")))) (re.++ (re.union (str.to_re "G") (re.union (str.to_re "TO") (re.union (str.to_re "e") (str.to_re "\u0022u")))) (re.union (str.to_re "w") (re.union (str.to_re "#(") (re.union (str.to_re "Xh") (str.to_re "&C")))))))) (re.++ ((_ re.loop 14 112) (re.++ (re.union (str.to_re "N>") (re.union (str.to_re "\u0022/") (re.union (str.to_re "]Q#") (str.to_re "=k")))) (re.++ (re.union (str.to_re ">g") (re.union (str.to_re "E") (re.union (str.to_re "qK!") (str.to_re "M")))) (re.++ (re.union (str.to_re "S") (re.union (str.to_re "va") (re.union (str.to_re "W") (str.to_re "J!F")))) (re.union (str.to_re "|") (re.union (str.to_re "_") (re.union (str.to_re "G") (str.to_re "3")))))))) (re.++ ((_ re.loop 9 946) (re.++ (re.union (str.to_re "1") (re.union (str.to_re "P") (re.union (str.to_re ">") (str.to_re "vA")))) (re.++ (re.union (str.to_re "qQE") (re.union (str.to_re "E") (re.union (str.to_re "#z") (str.to_re "N)")))) (re.++ (re.union (str.to_re "'C") (re.union (str.to_re "28") (re.union (str.to_re "Ea") (str.to_re "r")))) (re.union (str.to_re "Dok") (re.union (str.to_re "N/`") (re.union (str.to_re "U0") (str.to_re "U")))))))) ((_ re.loop 15 713) (re.++ (re.union (str.to_re "n") (re.union (str.to_re "/\\H") (re.union (str.to_re "YnX") (str.to_re "7l]")))) (re.++ (re.union (str.to_re "Dg") (re.union (str.to_re "T") (re.union (str.to_re "-[") (str.to_re "Su")))) (re.++ (re.union (str.to_re "t") (re.union (str.to_re "Vn\u0022") (re.union (str.to_re "]Bo") (str.to_re "tgG")))) (re.union (str.to_re "y[6") (re.union (str.to_re "IY") (re.union (str.to_re "6+}") (str.to_re "zg"))))))))))))))
(assert (not (str.in_re var0 (re.++ ((_ re.loop 3 761) (re.++ (re.union (str.to_re ":%") (re.union (str.to_re "U") (re.union (str.to_re "AN") (str.to_re "3!z")))) (re.++ (re.union (str.to_re "v!") (re.union (str.to_re "D9") (re.union (str.to_re "@p") (str.to_re "`)j")))) (re.++ (re.union (str.to_re "9") (re.union (str.to_re "65") (re.union (str.to_re "c&5") (str.to_re "F}")))) (re.union (str.to_re "Dn") (re.union (str.to_re "@") (re.union (str.to_re "Iv") (str.to_re "1'_")))))))) (re.++ ((_ re.loop 10 68) (re.++ (re.union (str.to_re "#-3") (re.union (str.to_re "3=") (re.union (str.to_re "+") (str.to_re "Ax")))) (re.++ (re.union (str.to_re "3.") (re.union (str.to_re "B)") (re.union (str.to_re "'+") (str.to_re "'[4")))) (re.++ (re.union (str.to_re "r]c") (re.union (str.to_re ",?") (re.union (str.to_re "9") (str.to_re "'")))) (re.union (str.to_re "p") (re.union (str.to_re "?") (re.union (str.to_re "V^i") (str.to_re "Dh")))))))) (re.++ ((_ re.loop 8 766) (re.++ (re.union (str.to_re "/'") (re.union (str.to_re "u|") (re.union (str.to_re "J") (str.to_re "+")))) (re.++ (re.union (str.to_re "2") (re.union (str.to_re "1f") (re.union (str.to_re "]*") (str.to_re "R8j")))) (re.++ (re.union (str.to_re "?") (re.union (str.to_re "V;]") (re.union (str.to_re "YX") (str.to_re "y_")))) (re.union (str.to_re "Lmf") (re.union (str.to_re "=") (re.union (str.to_re "D") (str.to_re "c")))))))) ((_ re.loop 11 423) (re.++ (re.union (str.to_re "M") (re.union (str.to_re "_:") (re.union (str.to_re "Fv}") (str.to_re "?$.")))) (re.++ (re.union (str.to_re ",o") (re.union (str.to_re "CN") (re.union (str.to_re "F") (str.to_re "'s")))) (re.++ (re.union (str.to_re "C(u") (re.union (str.to_re "T~v") (re.union (str.to_re "^7o") (str.to_re "Q")))) (re.union (str.to_re "qE") (re.union (str.to_re "]m") (re.union (str.to_re "#0") (str.to_re "Z"))))))))))))))
(assert (not (str.in_re var0 (re.++ (re.* re.allchar) (re.++ (re.union (str.to_re "<") (re.union (str.to_re ">") (re.union (str.to_re "'") (re.union (str.to_re "\u0022") (str.to_re "&"))))) (re.* re.allchar))))))
(assert (<= 50 (str.len var0)))
(check-sat)
(get-model)
